NAME: kroA100.tour
TYPE: TOUR
COMMENT: Cost = 24698.49657976498 Time = 18.163864 ms
DIMENSION: 100
TOUR_SECTION
3113
2991
2863
3022
2936
2848
2519
2542
2588
2573
2599
2574
2421
2482
2586
2716
2721
2628
2576
2728
2678
2597
2573
2290
2139
2178
1807
1724
1625
1621
1424
1251
1247
1234
929
928
890
872
738
611
463
298
274
252
378
376
161
123
53
22
19
241
327
457
776
953
1178
1256
1429
1323
1286
1187
1380
1115
984
938
742
611
839
178
198
1393
1787
1795
1917
2097
2945
2961
3085
3384
3373
3510
3447
3683
3911
3955
3950
3874
3854
3822
3756
3888
3875
3913
3893
3815
3640
3416
3479
3520
-1